data;


param d:= 100;
param r:=5;
param p:=0.800000;
param M:=1000;
param U:=
         1         1        3.396800e-02
         2         1       -1.615112e+00
         3         1       -6.885572e-01
         4         1        6.282780e-01
         5         1        5.748390e-01
         6         1        2.829926e-01
         7         1        2.644567e-01
         8         1        1.010411e+00
         9         1        1.095812e+00
        10         1        1.875752e+00
        11         1        7.573628e-01
        12         1        3.934820e-01
        13         1        2.363156e+00
        14         1        5.636352e-01
        15         1        1.131194e-01
        16         1        8.117386e-01
        17         1        5.497734e-01
        18         1        4.788495e-02
        19         1       -1.969268e+00
        20         1       -4.069072e-01
        21         1        7.403783e-01
        22         1        5.112411e-01
        23         1        1.960631e-01
        24         1       -1.144816e-01
        25         1       -1.950696e+00
        26         1       -1.657810e+00
        27         1        2.970285e-02
        28         1       -1.276887e+00
        29         1       -2.205926e+00
        30         1        4.181704e-02
        31         1        1.112099e+00
        32         1       -2.777984e+00
        33         1       -1.671284e+00
        34         1        2.093838e+00
        35         1        2.855804e+00
        36         1       -1.589674e+00
        37         1       -1.661442e+00
        38         1        3.920047e-01
        39         1       -9.142691e-01
        40         1       -3.532115e-01
        41         1        1.602624e+00
        42         1       -1.153352e+00
        43         1        1.146466e+00
        44         1       -2.323828e-01
        45         1        1.394647e+00
        46         1       -1.419894e+00
        47         1        8.621071e-01
        48         1        1.015179e+00
        49         1        2.304275e+00
        50         1        3.669552e-01
        51         1        1.258922e+00
        52         1       -1.511400e-02
        53         1        5.302051e-01
        54         1       -6.513608e-01
        55         1        9.914533e-01
        56         1        9.626640e-01
        57         1        8.956732e-01
        58         1       -5.807763e-02
        59         1        3.468832e-01
        60         1        2.784817e-01
        61         1       -1.028887e+00
        62         1        7.800674e-01
        63         1       -5.521059e-01
        64         1        3.634330e-01
        65         1       -1.264039e+00
        66         1       -7.662822e-01
        67         1        1.574050e+00
        68         1       -9.875593e-02
        69         1       -7.062707e-02
        70         1       -7.157911e-01
        71         1       -2.723534e-01
        72         1        5.240609e-01
        73         1       -8.319059e-01
        74         1       -7.749334e-01
        75         1        8.252839e-01
        76         1       -1.597856e+00
        77         1        1.883202e+00
        78         1        1.332062e+00
        79         1        5.634682e-01
        80         1       -7.947486e-02
        81         1       -6.574739e-01
        82         1        8.925234e-01
        83         1        2.035841e-01
        84         1       -4.794117e-01
        85         1       -1.556387e-01
        86         1        2.912064e-02
        87         1        9.178359e-02
        88         1        1.726761e-01
        89         1        9.987977e-01
        90         1       -2.082570e+00
        91         1        1.513503e-01
        92         1        1.180896e+00
        93         1       -3.526846e-01
        94         1       -1.547540e+00
        95         1        1.588793e+00
        96         1        4.736766e-01
        97         1       -3.083925e-01
        98         1        1.580554e+00
        99         1       -1.532136e+00
       100         1        1.173924e+00
         1         2       -1.739081e-01
         2         2        1.639666e+00
         3         2        4.483184e-01
         4         2        6.394463e-01
         5         2        1.211466e+00
         6         2       -1.179879e+00
         7         2       -9.009433e-01
         8         2       -4.126915e-02
         9         2       -1.001916e+00
        10         2        3.191445e-01
        11         2        1.182081e-04
        12         2       -4.190773e-01
        13         2       -5.603225e-02
        14         2       -5.537728e-01
        15         2       -1.829337e-01
        16         2       -1.545583e-01
        17         2       -8.119545e-02
        18         2        1.698384e+00
        19         2        5.128794e-01
        20         2        3.900986e-01
        21         2       -6.321761e-01
        22         2        1.228657e+00
        23         2       -1.636373e+00
        24         2        1.364223e+00
        25         2        9.883960e-02
        26         2       -8.866340e-01
        27         2        4.073420e-01
        28         2       -9.105558e-01
        29         2        3.026149e-01
        30         2        1.582611e+00
        31         2       -8.718477e-01
        32         2       -1.313289e+00
        33         2       -9.536398e-01
        34         2        1.333361e+00
        35         2        1.788117e+00
        36         2        2.183405e+00
        37         2        1.472433e+00
        38         2       -1.314246e+00
        39         2       -3.260713e-01
        40         2        2.315361e-01
        41         2       -8.977161e-02
        42         2       -2.508256e-01
        43         2        2.762032e-01
        44         2        1.981596e-01
        45         2       -7.226664e-01
        46         2       -3.054493e-02
        47         2        3.843464e-01
        48         2       -1.046198e+00
        49         2       -1.322906e+00
        50         2        3.082562e-01
        51         2        2.623021e-01
        52         2        1.127688e+00
        53         2        1.378556e-01
        54         2        1.681192e+00
        55         2        4.722055e-01
        56         2        1.449981e+00
        57         2        5.371322e-01
        58         2       -1.800669e-01
        59         2        1.634127e+00
        60         2       -7.411852e-01
        61         2       -1.283227e+00
        62         2       -9.061164e-01
        63         2       -7.417237e-01
        64         2       -3.150371e-01
        65         2       -2.086899e-01
        66         2       -1.297788e+00
        67         2        2.960422e-01
        68         2        5.102115e-01
        69         2       -7.221367e-01
        70         2       -1.303985e+00
        71         2        1.665849e-01
        72         2       -1.432720e+00
        73         2        7.406002e-01
        74         2        9.321546e-02
        75         2       -1.099175e-01
        76         2       -1.250690e+00
        77         2       -1.585837e+00
        78         2       -4.814487e-01
        79         2       -9.862334e-02
        80         2        5.643536e-01
        81         2       -1.242568e+00
        82         2        7.049126e-01
        83         2        1.448535e+00
        84         2        1.432569e+00
        85         2        3.362286e-01
        86         2        3.314573e-01
        87         2        1.058172e+00
        88         2        3.247875e-01
        89         2        1.064223e+00
        90         2        2.498531e-01
        91         2       -1.075238e+00
        92         2       -3.041150e+00
        93         2       -1.880509e+00
        94         2       -1.601019e+00
        95         2       -5.912970e-01
        96         2       -1.251741e+00
        97         2        3.346052e-03
        98         2        3.753442e-01
        99         2       -1.825284e+00
       100         2        9.139918e-01
         1         3        1.796556e+00
         2         3       -7.910154e-01
         3         3       -5.595464e-01
         4         3       -8.825729e-01
         5         3        3.294496e+00
         6         3        1.177300e-01
         7         3        4.068384e-01
         8         3       -1.779020e+00
         9         3        4.229576e-01
        10         3       -7.369324e-02
        11         3        5.840456e-01
        12         3       -1.548628e+00
        13         3       -1.152784e-01
        14         3        1.099729e+00
        15         3        1.419432e-01
        16         3        1.536664e+00
        17         3       -3.935273e-01
        18         3        7.234630e-01
        19         3       -1.427257e+00
        20         3       -7.854404e-01
        21         3        7.279760e-01
        22         3        2.928095e-01
        23         3        1.698932e+00
        24         3       -2.687006e-01
        25         3       -1.813281e+00
        26         3        1.450528e+00
        27         3       -1.706360e+00
        28         3        1.183517e+00
        29         3        8.308844e-01
        30         3       -4.685412e-01
        31         3        5.290062e-01
        32         3       -8.888551e-01
        33         3       -1.492031e+00
        34         3       -7.187727e-01
        35         3        1.011719e+00
        36         3       -9.191453e-01
        37         3        1.367910e+00
        38         3        4.767301e-01
        39         3        6.601513e-01
        40         3        2.672809e-01
        41         3        5.915185e-01
        42         3        3.000487e-01
        43         3       -6.319092e-01
        44         3       -1.091903e-01
        45         3        1.747660e+00
        46         3        5.397286e-01
        47         3        9.062920e-01
        48         3        8.324770e-03
        49         3       -9.925199e-01
        50         3       -1.507022e+00
        51         3        2.204662e-01
        52         3       -5.296029e-02
        53         3       -1.415541e+00
        54         3       -6.865777e-01
        55         3        6.410562e-01
        56         3        4.362392e-01
        57         3        5.959636e-02
        58         3       -3.865410e-01
        59         3       -2.947857e-01
        60         3        7.610845e-01
        61         3        3.301000e-01
        62         3       -1.934573e-01
        63         3       -1.432594e-01
        64         3       -1.434878e-01
        65         3       -9.104442e-01
        66         3       -5.259795e-01
        67         3       -5.199608e-02
        68         3       -3.787409e-01
        69         3        1.419261e+00
        70         3       -2.956979e+00
        71         3       -7.098938e-02
        72         3        1.833862e-01
        73         3        7.731759e-01
        74         3       -9.859040e-01
        75         3       -1.994171e+00
        76         3        1.743873e+00
        77         3       -5.299385e-01
        78         3       -1.693690e+00
        79         3       -2.059807e+00
        80         3        9.014309e-01
        81         3        5.056570e-01
        82         3       -7.414359e-01
        83         3       -8.163382e-01
        84         3        1.498555e+00
        85         3       -1.461880e+00
        86         3       -2.941232e-01
        87         3       -1.866424e-01
        88         3       -2.060052e-01
        89         3        5.494234e-01
        90         3       -1.256546e+00
        91         3       -8.939587e-01
        92         3       -3.048561e+00
        93         3       -2.768974e-01
        94         3        9.486782e-02
        95         3       -3.969373e-01
        96         3       -4.441454e-01
        97         3        8.348574e-01
        98         3        1.559602e+00
        99         3        7.444719e-01
       100         3       -1.711200e-01
         1         4       -7.395357e-01
         2         4       -3.218454e-01
         3         4        1.770654e+00
         4         4        1.655343e+00
         5         4       -2.975232e-01
         6         4       -5.629725e-01
         7         4       -5.740515e-01
         8         4        6.371219e-01
         9         4       -8.430482e-01
        10         4        1.967357e-01
        11         4        1.350146e+00
        12         4       -4.032444e-01
        13         4        4.165919e-01
        14         4        1.027207e+00
        15         4        5.789068e-01
        16         4        7.023021e-01
        17         4        2.854804e+00
        18         4        7.399001e-01
        19         4       -2.396261e-01
        20         4       -9.053681e-01
        21         4       -3.599872e-01
        22         4        1.750993e+00
        23         4        1.249826e+00
        24         4        7.173823e-02
        25         4       -9.477685e-02
        26         4       -2.565024e-01
        27         4       -2.563884e-01
        28         4       -2.004340e+00
        29         4        5.280462e-01
        30         4       -7.777779e-01
        31         4       -2.591421e-01
        32         4       -4.101868e-01
        33         4        1.446596e-01
        34         4        9.014599e-01
        35         4       -7.592383e-01
        36         4        1.560498e+00
        37         4       -3.141494e+00
        38         4       -8.958904e-01
        39         4        1.584850e+00
        40         4        4.084451e-03
        41         4       -4.772568e-01
        42         4        9.055580e-01
        43         4       -2.535646e-01
        44         4        1.425307e+00
        45         4        1.127563e+00
        46         4        1.485134e-01
        47         4       -1.119727e+00
        48         4        3.533995e-01
        49         4       -1.050707e+00
        50         4        2.046022e-01
        51         4       -1.307417e-01
        52         4        1.636937e-01
        53         4        2.679177e-01
        54         4       -3.577282e-01
        55         4       -1.443199e-01
        56         4       -6.136606e-01
        57         4       -1.633039e+00
        58         4        1.012733e+00
        59         4       -5.427878e-02
        60         4        1.440371e+00
        61         4        9.533810e-02
        62         4       -8.013159e-01
        63         4       -1.784170e+00
        64         4       -8.530751e-01
        65         4        7.014323e-01
        66         4        2.476619e+00
        67         4        4.073996e-01
        68         4        1.695526e+00
        69         4       -1.145597e+00
        70         4        1.193103e+00
        71         4       -4.556098e-01
        72         4       -1.473029e+00
        73         4       -9.864733e-01
        74         4        6.138910e-01
        75         4        1.435049e+00
        76         4       -2.755595e-01
        77         4        1.283225e+00
        78         4       -2.492545e-01
        79         4       -7.087828e-01
        80         4        7.896932e-01
        81         4        7.948850e-02
        82         4       -4.032657e-01
        83         4       -1.101382e+00
        84         4       -5.719011e-01
        85         4       -8.666226e-01
        86         4        8.063967e-01
        87         4       -3.025977e+00
        88         4       -6.447544e-01
        89         4        5.121685e-01
        90         4        1.144608e+00
        91         4       -9.748613e-01
        92         4       -4.986090e-02
        93         4        7.379463e-01
        94         4       -1.222333e+00
        95         4       -3.437761e-01
        96         4        5.626931e-01
        97         4        6.533817e-01
        98         4       -8.816612e-01
        99         4       -1.033329e+00
       100         4       -9.664234e-01
         1         5       -7.127091e-01
         2         5       -3.241916e-01
         3         5       -1.282292e+00
         4         5       -1.529529e+00
         5         5        6.995259e-01
         6         5       -2.504470e-01
         7         5       -1.749626e+00
         8         5       -7.916845e-01
         9         5        1.376054e-01
        10         5        3.781221e-01
        11         5       -1.764710e+00
        12         5       -1.578091e+00
        13         5        5.797864e-01
        14         5       -2.722359e-01
        15         5       -4.025235e-01
        16         5       -3.867739e-01
        17         5        2.743067e-01
        18         5       -7.942429e-01
        19         5       -5.283932e-01
        20         5       -4.598047e-01
        21         5       -1.123260e+00
        22         5       -1.910406e-02
        23         5       -1.146323e-01
        24         5       -2.672188e+00
        25         5        8.643545e-01
        26         5        1.023616e+00
        27         5        6.384616e-01
        28         5        5.815776e-01
        29         5        1.265855e+00
        30         5        1.461681e+00
        31         5       -1.218796e+00
        32         5        1.837661e+00
        33         5       -1.753487e-01
        34         5        1.454971e-01
        35         5        2.142255e+00
        36         5       -5.731224e-01
        37         5       -8.165964e-01
        38         5        3.228245e-01
        39         5        1.266566e+00
        40         5       -6.890253e-02
        41         5        8.705194e-01
        42         5        1.045277e+00
        43         5       -1.802364e+00
        44         5        1.457837e-02
        45         5        1.019979e+00
        46         5        9.239791e-01
        47         5       -1.064752e-01
        48         5        4.907234e-01
        49         5       -1.425689e-01
        50         5        1.571637e+00
        51         5       -8.405589e-02
        52         5        9.863265e-02
        53         5        7.663025e-01
        54         5        2.453234e-02
        55         5       -5.620953e-01
        56         5       -3.011697e-01
        57         5       -1.162142e+00
        58         5        6.443565e-01
        59         5       -9.938540e-01
        60         5       -4.026102e-01
        61         5        5.141735e-01
        62         5        7.637967e-01
        63         5        2.685857e+00
        64         5       -1.586951e+00
        65         5       -6.641436e-01
        66         5       -1.315140e+00
        67         5        1.386479e+00
        68         5       -1.003271e+00
        69         5        1.514474e+00
        70         5        4.606751e-01
        71         5       -5.801587e-02
        72         5       -2.229012e+00
        73         5       -1.233587e+00
        74         5        1.434016e+00
        75         5        2.964311e+00
        76         5       -1.506282e-01
        77         5       -3.148058e-01
        78         5        2.561476e-01
        79         5        1.117799e+00
        80         5       -1.145496e+00
        81         5        2.040190e+00
        82         5       -4.816184e-01
        83         5       -1.468312e+00
        84         5       -6.360126e-01
        85         5       -6.284219e-01
        86         5        1.920078e+00
        87         5        4.320216e-01
        88         5        4.381587e-01
        89         5       -4.000109e-01
        90         5        8.552117e-01
        91         5       -2.354629e-01
        92         5        5.362273e-01
        93         5        7.600681e-01
        94         5       -1.149413e+00
        95         5       -8.819093e-01
        96         5       -1.193586e+00
        97         5        1.080438e-02
        98         5        1.432824e+00
        99         5        3.962310e-01
       100         5       -1.897635e+00
;

param theta:=
    1       -5.751221e-02
    2       -1.030155e+00
    3        5.673381e-01
    4       -5.673289e-01
    5       -8.408825e-01
;
param X_true:=
    1        2.215318e+00
    2       -1.589796e+00
    3       -6.659756e-01
    4       -8.485495e-01
    5        1.686091e-01
    6        1.795963e+00
    7        2.940623e+00
    8       -7.206471e-01
    9        1.571642e+00
   10       -9.080261e-01
   11        1.005609e+00
   12        1.086250e+00
   13       -8.674671e-01
   14        8.081281e-01
   15        2.725185e-01
   16        9.111375e-01
   17       -2.021510e+00
   18       -1.093807e+00
   19       -6.445622e-01
   20        7.621305e-02
   21        2.170428e+00
   22       -2.106312e+00
   23        2.025641e+00
   24        6.550753e-01
   25       -1.691426e+00
   26        1.116435e+00
   27       -1.780831e+00
   28        2.330987e+00
   29       -1.077491e+00
   30       -2.686406e+00
   31        2.306187e+00
   32       -3.041679e-01
   33        2.974082e-01
   34       -2.535547e+00
   35       -2.802941e+00
   36       -3.082673e+00
   37        1.823709e+00
   38        1.838607e+00
   39       -1.201150e+00
   40       -1.094372e-02
   41       -1.253437e-01
   42       -8.977544e-01
   43        9.504564e-01
   44       -1.073595e+00
   45        1.583821e-01
   46       -4.418779e-01
   47        7.934426e-01
   48        4.109493e-01
   49        1.383161e+00
   50       -2.631286e+00
   51       -7.268169e-02
   52       -1.366677e+00
   53       -1.771964e+00
   54       -1.901628e+00
   55        3.747630e-01
   56       -7.001799e-01
   57        1.332665e+00
   58       -1.146843e+00
   59       -1.004089e+00
   60        7.006954e-01
   61        1.081927e+00
   62        5.911678e-01
   63       -5.317114e-01
   64        2.040642e+00
   65       -6.832531e-02
   66        7.834055e-01
   67       -1.821991e+00
   68       -8.530798e-01
   69        9.296111e-01
   70       -1.357389e+00
   71        1.110455e-01
   72        4.259854e+00
   73        1.320520e+00
   74       -2.164916e+00
   75       -4.372383e+00
   76        2.652660e+00
   77        7.614005e-01
   78       -6.155184e-01
   79       -1.637240e+00
   80        4.498267e-01
   81       -1.559276e-01
   82       -5.643764e-01
   83       -1.075403e-01
   84        2.612596e-01
   85       -1.467076e-01
   86       -2.582047e+00
   87        1.521957e-01
   88       -4.640392e-01
   89       -7.962544e-01
   90       -2.219003e+00
   91        1.342844e+00
   92        9.127591e-01
   93        7.426192e-01
   94        3.452108e+00
   95        1.229171e+00
   96        1.694698e+00
   97        1.081682e-01
   98       -2.973869e-01
   99        2.643864e+00
  100        1.037817e+00
;
param X:=
    1       -3.327077e-01
    2       -1.589796e+00
    3        1.848796e+00
    4       -1.264487e+00
    5        2.757412e-01
    6        1.795963e+00
    7       -1.246188e+00
    8       -7.206471e-01
    9       -2.018658e+00
   10        3.142198e-01
   11       -5.449399e-01
   12        5.224658e-01
   13        9.263327e-01
   14       -1.402341e+00
   15        2.725185e-01
   16       -1.301482e+00
   17       -6.850485e-01
   18       -3.499893e-01
   19       -1.501081e+00
   20        6.182355e-01
   21        1.207920e+00
   22       -8.816771e-01
   23       -1.349429e+00
   24        3.802903e-01
   25       -1.171204e-01
   26        7.439288e-01
   27        2.798813e-01
   28        2.330987e+00
   29       -2.780314e-01
   30        2.608643e-01
   31        7.763830e-01
   32       -3.090997e-01
   33        2.974082e-01
   34       -2.535547e+00
   35        1.318019e+00
   36       -3.082673e+00
   37       -2.411600e+00
   38        9.432410e-01
   39        2.060279e-01
   40       -7.951299e-01
   41        2.204747e-01
   42       -5.057868e-01
   43        5.025693e-01
   44       -1.073595e+00
   45       -1.041719e+00
   46        4.454692e-01
   47        7.934426e-01
   48        1.745577e-01
   49        1.635749e-01
   50        1.238126e+00
   51        5.538033e-01
   52       -2.038749e+00
   53       -2.251146e-01
   54       -1.157535e+00
   55       -3.723387e-01
   56       -8.230378e-01
   57        1.191839e+00
   58       -1.523838e+00
   59       -5.983462e-01
   60       -8.615447e-01
   61        1.081927e+00
   62       -1.227740e+00
   63       -5.164036e-01
   64        8.091619e-02
   65       -6.832531e-02
   66        6.249124e-01
   67       -2.849539e-01
   68       -2.472628e-01
   69        1.187757e+00
   70        4.022453e-01
   71       -7.066758e-01
   72        4.259854e+00
   73        7.675229e-01
   74       -1.874530e-01
   75       -2.070641e+00
   76        2.652660e+00
   77        7.614005e-01
   78       -2.307693e-01
   79        1.451126e+00
   80        4.498267e-01
   81       -1.318012e+00
   82       -4.349555e-01
   83       -2.427752e-01
   84       -4.864072e-01
   85        8.770993e-01
   86       -2.582047e+00
   87        1.521957e-01
   88        1.276295e+00
   89        1.322915e+00
   90       -1.949701e+00
   91        1.342844e+00
   92       -2.500086e-01
   93        7.426192e-01
   94       -9.688310e-01
   95       -4.014416e-01
   96       -9.598185e-01
   97        1.784865e-01
   98       -1.351477e+00
   99        5.463945e-01
  100        2.005072e+00
;
param outliervec:=
    1    1
    2    0
    3    1
    4    1
    5    1
    6    0
    7    1
    8    0
    9    1
   10    1
   11    1
   12    1
   13    1
   14    1
   15    0
   16    1
   17    1
   18    1
   19    1
   20    1
   21    1
   22    1
   23    1
   24    1
   25    1
   26    1
   27    1
   28    0
   29    1
   30    1
   31    1
   32    1
   33    0
   34    0
   35    1
   36    0
   37    1
   38    1
   39    1
   40    1
   41    1
   42    1
   43    1
   44    0
   45    1
   46    1
   47    0
   48    1
   49    1
   50    1
   51    1
   52    1
   53    1
   54    1
   55    1
   56    1
   57    1
   58    1
   59    1
   60    1
   61    0
   62    1
   63    1
   64    1
   65    0
   66    1
   67    1
   68    1
   69    1
   70    1
   71    1
   72    0
   73    1
   74    1
   75    1
   76    0
   77    0
   78    1
   79    1
   80    0
   81    1
   82    1
   83    1
   84    1
   85    1
   86    0
   87    0
   88    1
   89    1
   90    1
   91    0
   92    1
   93    0
   94    1
   95    1
   96    1
   97    1
   98    1
   99    1
  100    1
;